Route #1: 17 12 58 38 11
Route #2: 10 31 39 9 40
Route #3: 3 44 50 18 55 25 32
Route #4: 51 16 49 24 56 23 63 6
Route #5: 33 1 43 41 42 64 22
Route #6: 2 62 28 61 48 30
Route #7: 21 47 36 60 20 37 5
Route #8: 29 15 57 13 54 59 14
Route #9: 35 53 19 8 52 27 45
Route #10: 4 34 46 7 26
Cost 840